Minimize
	value: tt

Subject to
tt + 1000 s_1_1 > 0.0
tt - t_1_1 - 1000.224726 s_1_1  + 0.224726 s_1_7  > -999.150222
tt + 1000 s_2_1 > 0.0
tt - t_2_1 - 1000.238744 s_2_1  + 0.238744 s_2_7  > -994.338533
tt + 1000 s_1_2 > 0.0
tt - t_1_2 - 1000.224726 s_1_2  + 0.224726 s_1_8  > -999.060856
tt + 1000 s_2_2 > 0.0
tt - t_2_2 - 1000.238744 s_2_2  + 0.238744 s_2_8  > -993.977850
tt + 1000 s_1_3 > 0.0
tt - t_1_3 - 1000.224726 s_1_3  + 0.224726 s_1_8  > -998.733086
tt + 1000 s_2_3 > 0.0
tt - t_2_3 - 1000.238744 s_2_3  + 0.238744 s_2_8  > -990.794735
tt + 1000 s_1_4 > 0.0
tt - t_1_4 - 1000.449451 s_1_4  + 0.224726 s_1_8  + 0.224726 s_1_3  > -999.285167
tt + 1000 s_2_4 > 0.0
tt - t_2_4 - 1000.477489 s_2_4  + 0.238744 s_2_8  + 0.238744 s_2_3  > -994.973157
tt + 1000 s_1_5 > 0.0
tt - t_1_5 - 1000.449451 s_1_5  + 0.224726 s_1_7  + 0.224726 s_1_8  > -999.337047
tt + 1000 s_2_5 > 0.0
tt - t_2_5 - 1000.477489 s_2_5  + 0.238744 s_2_7  + 0.238744 s_2_8  > -995.389937
tt + 1000 s_1_6 > 0.0
tt - t_1_6 - 1001.123629 s_1_6  + 0.224726 s_1_5  + 0.224726 s_1_2  + 0.224726 s_1_1  + 0.224726 s_1_3  + 0.224726 s_1_4  > -999.908400
tt + 1000 s_2_6 > 0.0
tt - t_2_6 - 1001.193722 s_2_6  + 0.238744 s_2_5  + 0.238744 s_2_2  + 0.238744 s_2_1  + 0.238744 s_2_3  + 0.238744 s_2_4  > -996.889400
tt + 1000 s_1_7 > 0.0
tt - t_1_7 - 1000.000000 s_1_7  > -997.849456
tt + 1000 s_2_7 > 0.0
tt - t_2_7 - 1000.000000 s_2_7  > -991.878479
tt + 1000 s_1_8 > 0.0
tt - t_1_8 - 1000.000000 s_1_8  > -998.320500
tt + 1000 s_2_8 > 0.0
tt - t_2_8 - 1000.000000 s_2_8  > -994.777889
s_1_1 + s_2_1 = 1
s_1_2 + s_2_2 = 1
s_1_3 + s_2_3 = 1
s_1_4 + s_2_4 = 1
s_1_5 + s_2_5 = 1
s_1_6 + s_2_6 = 1
s_1_7 + s_2_7 = 1
s_1_8 + s_2_8 = 1
s_1_1 + s_1_2 + 1000 r_1_1_2 >= 2
- s_1_1 - s_1_2 - 1000 r_1_1_2 >= -1001
t_1_1 - t_1_2 - 1000.000000 u_1_1_2 - 0.224726 s_1_2  + 0.224726 s_1_8  + 2000.000000 r_1_1_2 > -999.060856
s_2_1 + s_2_2 + 1000 r_2_1_2 >= 2
- s_2_1 - s_2_2 - 1000 r_2_1_2 >= -1001
t_2_1 - t_2_2 - 1000.000000 u_2_1_2 - 0.238744 s_2_2  + 0.238744 s_2_8  + 2000.000000 r_2_1_2 > -993.977850
s_1_1 + s_1_3 + 1000 r_1_1_3 >= 2
- s_1_1 - s_1_3 - 1000 r_1_1_3 >= -1001
t_1_1 - t_1_3 - 1000.000000 u_1_1_3 - 0.224726 s_1_3  + 0.224726 s_1_8  + 2000.000000 r_1_1_3 > -998.733086
s_2_1 + s_2_3 + 1000 r_2_1_3 >= 2
- s_2_1 - s_2_3 - 1000 r_2_1_3 >= -1001
t_2_1 - t_2_3 - 1000.000000 u_2_1_3 - 0.238744 s_2_3  + 0.238744 s_2_8  + 2000.000000 r_2_1_3 > -990.794735
s_1_1 + s_1_4 + 1000 r_1_1_4 >= 2
- s_1_1 - s_1_4 - 1000 r_1_1_4 >= -1001
t_1_1 - t_1_4 - 1000.000000 u_1_1_4 - 0.449451 s_1_4  + 0.224726 s_1_8  + 0.224726 s_1_3  + 2000.000000 r_1_1_4 > -999.285167
s_2_1 + s_2_4 + 1000 r_2_1_4 >= 2
- s_2_1 - s_2_4 - 1000 r_2_1_4 >= -1001
t_2_1 - t_2_4 - 1000.000000 u_2_1_4 - 0.477489 s_2_4  + 0.238744 s_2_8  + 0.238744 s_2_3  + 2000.000000 r_2_1_4 > -994.973157
s_1_1 + s_1_5 + 1000 r_1_1_5 >= 2
- s_1_1 - s_1_5 - 1000 r_1_1_5 >= -1001
t_1_1 - t_1_5 - 1000.000000 u_1_1_5 - 0.449451 s_1_5  + 0.224726 s_1_7  + 0.224726 s_1_8  + 2000.000000 r_1_1_5 > -999.337047
s_2_1 + s_2_5 + 1000 r_2_1_5 >= 2
- s_2_1 - s_2_5 - 1000 r_2_1_5 >= -1001
t_2_1 - t_2_5 - 1000.000000 u_2_1_5 - 0.477489 s_2_5  + 0.238744 s_2_7  + 0.238744 s_2_8  + 2000.000000 r_2_1_5 > -995.389937
t_1_6 - t_1_1 - 1000.224726 s_1_1  + 0.224726 s_1_7  > -999.150222
t_1_6 - t_2_1 - 1000.238744 s_2_1  + 0.238744 s_2_7  > -994.338533
t_2_6 - t_1_1 - 1000.224726 s_1_1  + 0.224726 s_1_7  > -999.150222
t_2_6 - t_2_1 - 1000.238744 s_2_1  + 0.238744 s_2_7  > -994.338533
t_1_1 - t_1_7 - 1000.000000 s_1_7  > -997.849456
t_1_1 - t_2_7 - 1000.000000 s_2_7  > -991.878479
t_2_1 - t_1_7 - 1000.000000 s_1_7  > -997.849456
t_2_1 - t_2_7 - 1000.000000 s_2_7  > -991.878479
s_1_1 + s_1_8 + 1000 r_1_1_8 >= 2
- s_1_1 - s_1_8 - 1000 r_1_1_8 >= -1001
t_1_1 - t_1_8 - 1000.000000 u_1_1_8 - 0.000000 s_1_8  + 2000.000000 r_1_1_8 > -998.320500
s_2_1 + s_2_8 + 1000 r_2_1_8 >= 2
- s_2_1 - s_2_8 - 1000 r_2_1_8 >= -1001
t_2_1 - t_2_8 - 1000.000000 u_2_1_8 - 0.000000 s_2_8  + 2000.000000 r_2_1_8 > -994.777889
s_1_2 + s_1_1 + 1000 r_1_1_2 >= 2
- s_1_2 - s_1_1 - 1000 r_1_1_2 >= -1001
t_1_2 - t_1_1 + 1000.000000 u_1_1_2 - 0.224726 s_1_1  + 0.224726 s_1_7  + 2000.000000 r_1_1_2 > 0.849778
s_2_2 + s_2_1 + 1000 r_2_1_2 >= 2
- s_2_2 - s_2_1 - 1000 r_2_1_2 >= -1001
t_2_2 - t_2_1 + 1000.000000 u_2_1_2 - 0.238744 s_2_1  + 0.238744 s_2_7  + 2000.000000 r_2_1_2 > 5.661467
s_1_2 + s_1_3 + 1000 r_1_2_3 >= 2
- s_1_2 - s_1_3 - 1000 r_1_2_3 >= -1001
t_1_2 - t_1_3 - 1000.000000 u_1_2_3 - 0.224726 s_1_3  + 0.224726 s_1_8  + 2000.000000 r_1_2_3 > -998.733086
s_2_2 + s_2_3 + 1000 r_2_2_3 >= 2
- s_2_2 - s_2_3 - 1000 r_2_2_3 >= -1001
t_2_2 - t_2_3 - 1000.000000 u_2_2_3 - 0.238744 s_2_3  + 0.238744 s_2_8  + 2000.000000 r_2_2_3 > -990.794735
s_1_2 + s_1_4 + 1000 r_1_2_4 >= 2
- s_1_2 - s_1_4 - 1000 r_1_2_4 >= -1001
t_1_2 - t_1_4 - 1000.000000 u_1_2_4 - 0.449451 s_1_4  + 0.224726 s_1_8  + 0.224726 s_1_3  + 2000.000000 r_1_2_4 > -999.285167
s_2_2 + s_2_4 + 1000 r_2_2_4 >= 2
- s_2_2 - s_2_4 - 1000 r_2_2_4 >= -1001
t_2_2 - t_2_4 - 1000.000000 u_2_2_4 - 0.477489 s_2_4  + 0.238744 s_2_8  + 0.238744 s_2_3  + 2000.000000 r_2_2_4 > -994.973157
s_1_2 + s_1_5 + 1000 r_1_2_5 >= 2
- s_1_2 - s_1_5 - 1000 r_1_2_5 >= -1001
t_1_2 - t_1_5 - 1000.000000 u_1_2_5 - 0.449451 s_1_5  + 0.224726 s_1_7  + 0.224726 s_1_8  + 2000.000000 r_1_2_5 > -999.337047
s_2_2 + s_2_5 + 1000 r_2_2_5 >= 2
- s_2_2 - s_2_5 - 1000 r_2_2_5 >= -1001
t_2_2 - t_2_5 - 1000.000000 u_2_2_5 - 0.477489 s_2_5  + 0.238744 s_2_7  + 0.238744 s_2_8  + 2000.000000 r_2_2_5 > -995.389937
t_1_6 - t_1_2 - 1000.224726 s_1_2  + 0.224726 s_1_8  > -999.060856
t_1_6 - t_2_2 - 1000.238744 s_2_2  + 0.238744 s_2_8  > -993.977850
t_2_6 - t_1_2 - 1000.224726 s_1_2  + 0.224726 s_1_8  > -999.060856
t_2_6 - t_2_2 - 1000.238744 s_2_2  + 0.238744 s_2_8  > -993.977850
s_1_2 + s_1_7 + 1000 r_1_2_7 >= 2
- s_1_2 - s_1_7 - 1000 r_1_2_7 >= -1001
t_1_2 - t_1_7 - 1000.000000 u_1_2_7 - 0.000000 s_1_7  + 2000.000000 r_1_2_7 > -997.849456
s_2_2 + s_2_7 + 1000 r_2_2_7 >= 2
- s_2_2 - s_2_7 - 1000 r_2_2_7 >= -1001
t_2_2 - t_2_7 - 1000.000000 u_2_2_7 - 0.000000 s_2_7  + 2000.000000 r_2_2_7 > -991.878479
t_1_2 - t_1_8 - 1000.000000 s_1_8  > -998.320500
t_1_2 - t_2_8 - 1000.000000 s_2_8  > -994.777889
t_2_2 - t_1_8 - 1000.000000 s_1_8  > -998.320500
t_2_2 - t_2_8 - 1000.000000 s_2_8  > -994.777889
s_1_3 + s_1_1 + 1000 r_1_1_3 >= 2
- s_1_3 - s_1_1 - 1000 r_1_1_3 >= -1001
t_1_3 - t_1_1 + 1000.000000 u_1_1_3 - 0.224726 s_1_1  + 0.224726 s_1_7  + 2000.000000 r_1_1_3 > 0.849778
s_2_3 + s_2_1 + 1000 r_2_1_3 >= 2
- s_2_3 - s_2_1 - 1000 r_2_1_3 >= -1001
t_2_3 - t_2_1 + 1000.000000 u_2_1_3 - 0.238744 s_2_1  + 0.238744 s_2_7  + 2000.000000 r_2_1_3 > 5.661467
s_1_3 + s_1_2 + 1000 r_1_2_3 >= 2
- s_1_3 - s_1_2 - 1000 r_1_2_3 >= -1001
t_1_3 - t_1_2 + 1000.000000 u_1_2_3 - 0.224726 s_1_2  + 0.224726 s_1_8  + 2000.000000 r_1_2_3 > 0.939144
s_2_3 + s_2_2 + 1000 r_2_2_3 >= 2
- s_2_3 - s_2_2 - 1000 r_2_2_3 >= -1001
t_2_3 - t_2_2 + 1000.000000 u_2_2_3 - 0.238744 s_2_2  + 0.238744 s_2_8  + 2000.000000 r_2_2_3 > 6.022150
t_1_4 - t_1_3 - 1000.224726 s_1_3  + 0.224726 s_1_8  > -998.733086
t_1_4 - t_2_3 - 1000.238744 s_2_3  + 0.238744 s_2_8  > -990.794735
t_2_4 - t_1_3 - 1000.224726 s_1_3  + 0.224726 s_1_8  > -998.733086
t_2_4 - t_2_3 - 1000.238744 s_2_3  + 0.238744 s_2_8  > -990.794735
s_1_3 + s_1_5 + 1000 r_1_3_5 >= 2
- s_1_3 - s_1_5 - 1000 r_1_3_5 >= -1001
t_1_3 - t_1_5 - 1000.000000 u_1_3_5 - 0.449451 s_1_5  + 0.224726 s_1_7  + 0.224726 s_1_8  + 2000.000000 r_1_3_5 > -999.337047
s_2_3 + s_2_5 + 1000 r_2_3_5 >= 2
- s_2_3 - s_2_5 - 1000 r_2_3_5 >= -1001
t_2_3 - t_2_5 - 1000.000000 u_2_3_5 - 0.477489 s_2_5  + 0.238744 s_2_7  + 0.238744 s_2_8  + 2000.000000 r_2_3_5 > -995.389937
t_1_6 - t_1_3 - 1000.224726 s_1_3  + 0.224726 s_1_8  > -998.733086
t_1_6 - t_2_3 - 1000.238744 s_2_3  + 0.238744 s_2_8  > -990.794735
t_2_6 - t_1_3 - 1000.224726 s_1_3  + 0.224726 s_1_8  > -998.733086
t_2_6 - t_2_3 - 1000.238744 s_2_3  + 0.238744 s_2_8  > -990.794735
s_1_3 + s_1_7 + 1000 r_1_3_7 >= 2
- s_1_3 - s_1_7 - 1000 r_1_3_7 >= -1001
t_1_3 - t_1_7 - 1000.000000 u_1_3_7 - 0.000000 s_1_7  + 2000.000000 r_1_3_7 > -997.849456
s_2_3 + s_2_7 + 1000 r_2_3_7 >= 2
- s_2_3 - s_2_7 - 1000 r_2_3_7 >= -1001
t_2_3 - t_2_7 - 1000.000000 u_2_3_7 - 0.000000 s_2_7  + 2000.000000 r_2_3_7 > -991.878479
t_1_3 - t_1_8 - 1000.000000 s_1_8  > -998.320500
t_1_3 - t_2_8 - 1000.000000 s_2_8  > -994.777889
t_2_3 - t_1_8 - 1000.000000 s_1_8  > -998.320500
t_2_3 - t_2_8 - 1000.000000 s_2_8  > -994.777889
s_1_4 + s_1_1 + 1000 r_1_1_4 >= 2
- s_1_4 - s_1_1 - 1000 r_1_1_4 >= -1001
t_1_4 - t_1_1 + 1000.000000 u_1_1_4 - 0.224726 s_1_1  + 0.224726 s_1_7  + 2000.000000 r_1_1_4 > 0.849778
s_2_4 + s_2_1 + 1000 r_2_1_4 >= 2
- s_2_4 - s_2_1 - 1000 r_2_1_4 >= -1001
t_2_4 - t_2_1 + 1000.000000 u_2_1_4 - 0.238744 s_2_1  + 0.238744 s_2_7  + 2000.000000 r_2_1_4 > 5.661467
s_1_4 + s_1_2 + 1000 r_1_2_4 >= 2
- s_1_4 - s_1_2 - 1000 r_1_2_4 >= -1001
t_1_4 - t_1_2 + 1000.000000 u_1_2_4 - 0.224726 s_1_2  + 0.224726 s_1_8  + 2000.000000 r_1_2_4 > 0.939144
s_2_4 + s_2_2 + 1000 r_2_2_4 >= 2
- s_2_4 - s_2_2 - 1000 r_2_2_4 >= -1001
t_2_4 - t_2_2 + 1000.000000 u_2_2_4 - 0.238744 s_2_2  + 0.238744 s_2_8  + 2000.000000 r_2_2_4 > 6.022150
s_1_4 + s_1_5 + 1000 r_1_4_5 >= 2
- s_1_4 - s_1_5 - 1000 r_1_4_5 >= -1001
t_1_4 - t_1_5 - 1000.000000 u_1_4_5 - 0.449451 s_1_5  + 0.224726 s_1_7  + 0.224726 s_1_8  + 2000.000000 r_1_4_5 > -999.337047
s_2_4 + s_2_5 + 1000 r_2_4_5 >= 2
- s_2_4 - s_2_5 - 1000 r_2_4_5 >= -1001
t_2_4 - t_2_5 - 1000.000000 u_2_4_5 - 0.477489 s_2_5  + 0.238744 s_2_7  + 0.238744 s_2_8  + 2000.000000 r_2_4_5 > -995.389937
t_1_6 - t_1_4 - 1000.449451 s_1_4  + 0.224726 s_1_8  + 0.224726 s_1_3  > -999.285167
t_1_6 - t_2_4 - 1000.477489 s_2_4  + 0.238744 s_2_8  + 0.238744 s_2_3  > -994.973157
t_2_6 - t_1_4 - 1000.449451 s_1_4  + 0.224726 s_1_8  + 0.224726 s_1_3  > -999.285167
t_2_6 - t_2_4 - 1000.477489 s_2_4  + 0.238744 s_2_8  + 0.238744 s_2_3  > -994.973157
s_1_4 + s_1_7 + 1000 r_1_4_7 >= 2
- s_1_4 - s_1_7 - 1000 r_1_4_7 >= -1001
t_1_4 - t_1_7 - 1000.000000 u_1_4_7 - 0.000000 s_1_7  + 2000.000000 r_1_4_7 > -997.849456
s_2_4 + s_2_7 + 1000 r_2_4_7 >= 2
- s_2_4 - s_2_7 - 1000 r_2_4_7 >= -1001
t_2_4 - t_2_7 - 1000.000000 u_2_4_7 - 0.000000 s_2_7  + 2000.000000 r_2_4_7 > -991.878479
t_1_4 - t_1_8 - 1000.000000 s_1_8  > -998.320500
t_1_4 - t_2_8 - 1000.000000 s_2_8  > -994.777889
t_2_4 - t_1_8 - 1000.000000 s_1_8  > -998.320500
t_2_4 - t_2_8 - 1000.000000 s_2_8  > -994.777889
s_1_5 + s_1_1 + 1000 r_1_1_5 >= 2
- s_1_5 - s_1_1 - 1000 r_1_1_5 >= -1001
t_1_5 - t_1_1 + 1000.000000 u_1_1_5 - 0.224726 s_1_1  + 0.224726 s_1_7  + 2000.000000 r_1_1_5 > 0.849778
s_2_5 + s_2_1 + 1000 r_2_1_5 >= 2
- s_2_5 - s_2_1 - 1000 r_2_1_5 >= -1001
t_2_5 - t_2_1 + 1000.000000 u_2_1_5 - 0.238744 s_2_1  + 0.238744 s_2_7  + 2000.000000 r_2_1_5 > 5.661467
s_1_5 + s_1_2 + 1000 r_1_2_5 >= 2
- s_1_5 - s_1_2 - 1000 r_1_2_5 >= -1001
t_1_5 - t_1_2 + 1000.000000 u_1_2_5 - 0.224726 s_1_2  + 0.224726 s_1_8  + 2000.000000 r_1_2_5 > 0.939144
s_2_5 + s_2_2 + 1000 r_2_2_5 >= 2
- s_2_5 - s_2_2 - 1000 r_2_2_5 >= -1001
t_2_5 - t_2_2 + 1000.000000 u_2_2_5 - 0.238744 s_2_2  + 0.238744 s_2_8  + 2000.000000 r_2_2_5 > 6.022150
s_1_5 + s_1_3 + 1000 r_1_3_5 >= 2
- s_1_5 - s_1_3 - 1000 r_1_3_5 >= -1001
t_1_5 - t_1_3 + 1000.000000 u_1_3_5 - 0.224726 s_1_3  + 0.224726 s_1_8  + 2000.000000 r_1_3_5 > 1.266914
s_2_5 + s_2_3 + 1000 r_2_3_5 >= 2
- s_2_5 - s_2_3 - 1000 r_2_3_5 >= -1001
t_2_5 - t_2_3 + 1000.000000 u_2_3_5 - 0.238744 s_2_3  + 0.238744 s_2_8  + 2000.000000 r_2_3_5 > 9.205265
s_1_5 + s_1_4 + 1000 r_1_4_5 >= 2
- s_1_5 - s_1_4 - 1000 r_1_4_5 >= -1001
t_1_5 - t_1_4 + 1000.000000 u_1_4_5 - 0.449451 s_1_4  + 0.224726 s_1_8  + 0.224726 s_1_3  + 2000.000000 r_1_4_5 > 0.714833
s_2_5 + s_2_4 + 1000 r_2_4_5 >= 2
- s_2_5 - s_2_4 - 1000 r_2_4_5 >= -1001
t_2_5 - t_2_4 + 1000.000000 u_2_4_5 - 0.477489 s_2_4  + 0.238744 s_2_8  + 0.238744 s_2_3  + 2000.000000 r_2_4_5 > 5.026843
t_1_6 - t_1_5 - 1000.449451 s_1_5  + 0.224726 s_1_7  + 0.224726 s_1_8  > -999.337047
t_1_6 - t_2_5 - 1000.477489 s_2_5  + 0.238744 s_2_7  + 0.238744 s_2_8  > -995.389937
t_2_6 - t_1_5 - 1000.449451 s_1_5  + 0.224726 s_1_7  + 0.224726 s_1_8  > -999.337047
t_2_6 - t_2_5 - 1000.477489 s_2_5  + 0.238744 s_2_7  + 0.238744 s_2_8  > -995.389937
t_1_5 - t_1_7 - 1000.000000 s_1_7  > -997.849456
t_1_5 - t_2_7 - 1000.000000 s_2_7  > -991.878479
t_2_5 - t_1_7 - 1000.000000 s_1_7  > -997.849456
t_2_5 - t_2_7 - 1000.000000 s_2_7  > -991.878479
t_1_5 - t_1_8 - 1000.000000 s_1_8  > -998.320500
t_1_5 - t_2_8 - 1000.000000 s_2_8  > -994.777889
t_2_5 - t_1_8 - 1000.000000 s_1_8  > -998.320500
t_2_5 - t_2_8 - 1000.000000 s_2_8  > -994.777889
s_1_7 + s_1_2 + 1000 r_1_2_7 >= 2
- s_1_7 - s_1_2 - 1000 r_1_2_7 >= -1001
t_1_7 - t_1_2 + 1000.000000 u_1_2_7 - 0.224726 s_1_2  + 0.224726 s_1_8  + 2000.000000 r_1_2_7 > 0.939144
s_2_7 + s_2_2 + 1000 r_2_2_7 >= 2
- s_2_7 - s_2_2 - 1000 r_2_2_7 >= -1001
t_2_7 - t_2_2 + 1000.000000 u_2_2_7 - 0.238744 s_2_2  + 0.238744 s_2_8  + 2000.000000 r_2_2_7 > 6.022150
s_1_7 + s_1_3 + 1000 r_1_3_7 >= 2
- s_1_7 - s_1_3 - 1000 r_1_3_7 >= -1001
t_1_7 - t_1_3 + 1000.000000 u_1_3_7 - 0.224726 s_1_3  + 0.224726 s_1_8  + 2000.000000 r_1_3_7 > 1.266914
s_2_7 + s_2_3 + 1000 r_2_3_7 >= 2
- s_2_7 - s_2_3 - 1000 r_2_3_7 >= -1001
t_2_7 - t_2_3 + 1000.000000 u_2_3_7 - 0.238744 s_2_3  + 0.238744 s_2_8  + 2000.000000 r_2_3_7 > 9.205265
s_1_7 + s_1_4 + 1000 r_1_4_7 >= 2
- s_1_7 - s_1_4 - 1000 r_1_4_7 >= -1001
t_1_7 - t_1_4 + 1000.000000 u_1_4_7 - 0.449451 s_1_4  + 0.224726 s_1_8  + 0.224726 s_1_3  + 2000.000000 r_1_4_7 > 0.714833
s_2_7 + s_2_4 + 1000 r_2_4_7 >= 2
- s_2_7 - s_2_4 - 1000 r_2_4_7 >= -1001
t_2_7 - t_2_4 + 1000.000000 u_2_4_7 - 0.477489 s_2_4  + 0.238744 s_2_8  + 0.238744 s_2_3  + 2000.000000 r_2_4_7 > 5.026843
s_1_7 + s_1_8 + 1000 r_1_7_8 >= 2
- s_1_7 - s_1_8 - 1000 r_1_7_8 >= -1001
t_1_7 - t_1_8 - 1000.000000 u_1_7_8 - 0.000000 s_1_8  + 2000.000000 r_1_7_8 > -998.320500
s_2_7 + s_2_8 + 1000 r_2_7_8 >= 2
- s_2_7 - s_2_8 - 1000 r_2_7_8 >= -1001
t_2_7 - t_2_8 - 1000.000000 u_2_7_8 - 0.000000 s_2_8  + 2000.000000 r_2_7_8 > -994.777889
s_1_8 + s_1_1 + 1000 r_1_1_8 >= 2
- s_1_8 - s_1_1 - 1000 r_1_1_8 >= -1001
t_1_8 - t_1_1 + 1000.000000 u_1_1_8 - 0.224726 s_1_1  + 0.224726 s_1_7  + 2000.000000 r_1_1_8 > 0.849778
s_2_8 + s_2_1 + 1000 r_2_1_8 >= 2
- s_2_8 - s_2_1 - 1000 r_2_1_8 >= -1001
t_2_8 - t_2_1 + 1000.000000 u_2_1_8 - 0.238744 s_2_1  + 0.238744 s_2_7  + 2000.000000 r_2_1_8 > 5.661467
s_1_8 + s_1_7 + 1000 r_1_7_8 >= 2
- s_1_8 - s_1_7 - 1000 r_1_7_8 >= -1001
t_1_8 - t_1_7 + 1000.000000 u_1_7_8 - 0.000000 s_1_7  + 2000.000000 r_1_7_8 > 2.150544
s_2_8 + s_2_7 + 1000 r_2_7_8 >= 2
- s_2_8 - s_2_7 - 1000 r_2_7_8 >= -1001
t_2_8 - t_2_7 + 1000.000000 u_2_7_8 - 0.000000 s_2_7  + 2000.000000 r_2_7_8 > 8.121521
Binary
s_1_1
s_2_1
s_1_2
s_2_2
s_1_3
s_2_3
s_1_4
s_2_4
s_1_5
s_2_5
s_1_6
s_2_6
s_1_7
s_2_7
s_1_8
s_2_8
u_1_1_2
r_1_1_2
u_2_1_2
r_2_1_2
u_1_1_3
r_1_1_3
u_2_1_3
r_2_1_3
u_1_1_4
r_1_1_4
u_2_1_4
r_2_1_4
u_1_1_5
r_1_1_5
u_2_1_5
r_2_1_5
u_1_1_8
r_1_1_8
u_2_1_8
r_2_1_8
u_1_2_3
r_1_2_3
u_2_2_3
r_2_2_3
u_1_2_4
r_1_2_4
u_2_2_4
r_2_2_4
u_1_2_5
r_1_2_5
u_2_2_5
r_2_2_5
u_1_2_7
r_1_2_7
u_2_2_7
r_2_2_7
u_1_3_5
r_1_3_5
u_2_3_5
r_2_3_5
u_1_3_7
r_1_3_7
u_2_3_7
r_2_3_7
u_1_4_5
r_1_4_5
u_2_4_5
r_2_4_5
u_1_4_7
r_1_4_7
u_2_4_7
r_2_4_7
u_1_7_8
r_1_7_8
u_2_7_8
r_2_7_8

End
